param N:= 15;
param: xcoord	ycoord :=
1		-104.8408 39.7877
2		-104.8134 39.7942
3		-104.8285 39.7868
4		-104.8193 39.7870
5		-104.8415 39.7806
6		-104.8108 39.7752
7		-104.8118 39.7844
8		-104.8459 39.7805
9		-104.8430 39.7954
10		-104.8341 39.7940
11		-104.8304 39.7763
12		-104.8178 39.7777
13		-104.8239 39.7779
14		-104.8359 39.7790
15		-104.8238 39.7944;